problems/csplib-prob015/SchursLemma-models/noch/O2/lingeling/model_1_4-6-9-solution000001.solution
language Essence 1.3

letting boxes be partition({1, 2}, {3, 5}, {4, 8}, {6}, {7}, {9})
